(set-logic QF_UF)
(declare-fun G101 () Bool)
(declare-fun G104 () Bool)
(declare-fun G107 () Bool)
(declare-fun G110 () Bool)
(declare-fun G113 () Bool)
(declare-fun G116 () Bool)
(declare-fun G119 () Bool)
(declare-fun G122 () Bool)
(declare-fun G125 () Bool)
(declare-fun G128 () Bool)
(declare-fun G131 () Bool)
(declare-fun G134 () Bool)
(declare-fun G137 () Bool)
(declare-fun G140 () Bool)
(declare-fun G143 () Bool)
(declare-fun G146 () Bool)
(declare-fun G210 () Bool)
(declare-fun G214 () Bool)
(declare-fun G217 () Bool)
(declare-fun G221 () Bool)
(declare-fun G224 () Bool)
(declare-fun G227 () Bool)
(declare-fun G234 () Bool)
(declare-fun G237 () Bool)
(declare-fun G469 () Bool)
(declare-fun G472 () Bool)
(declare-fun G475 () Bool)
(declare-fun G478 () Bool)
(declare-fun G898 () Bool)
(declare-fun G900 () Bool)
(declare-fun G902 () Bool)
(declare-fun G952 () Bool)
(declare-fun G953 () Bool)
(assert (let ((.def_0 (not G131))) (let ((.def_1 (not G902))) (let ((.def_2 (not G119))) (let ((.def_3 (and G116 .def_2))) (let ((.def_4 (not .def_3))) (let ((.def_5 (not G116))) (let ((.def_6 (and G119 .def_5))) (let ((.def_7 (not .def_6))) (let ((.def_8 (and .def_7 .def_4))) (let ((.def_9 (not .def_8))) (let ((.def_10 (and G113 .def_9))) (let ((.def_11 (not .def_10))) (let ((.def_12 (not G113))) (let ((.def_13 (and .def_12 .def_8))) (let ((.def_14 (not .def_13))) (let ((.def_15 (and .def_14 .def_11))) (let ((.def_16 (not G101))) (let ((.def_17 (not G107))) (let ((.def_18 (and .def_17 G104))) (let ((.def_19 (not .def_18))) (let ((.def_20 (not G104))) (let ((.def_21 (and G107 .def_20))) (let ((.def_22 (not .def_21))) (let ((.def_23 (and .def_22 .def_19))) (let ((.def_24 (and .def_23 .def_16))) (let ((.def_25 (not .def_24))) (let ((.def_26 (not .def_23))) (let ((.def_27 (and .def_26 G101))) (let ((.def_28 (not .def_27))) (let ((.def_29 (and .def_28 .def_25))) (let ((.def_30 (and .def_29 .def_15))) (let ((.def_31 (not .def_30))) (let ((.def_32 (not .def_29))) (let ((.def_33 (not .def_15))) (let ((.def_34 (and .def_33 .def_32))) (let ((.def_35 (not .def_34))) (let ((.def_36 (and .def_35 .def_31))) (let ((.def_37 (not G110))) (let ((.def_38 (and .def_37 G122))) (let ((.def_39 (not .def_38))) (let ((.def_40 (not G122))) (let ((.def_41 (and G110 .def_40))) (let ((.def_42 (not .def_41))) (let ((.def_43 (and .def_42 .def_39))) (let ((.def_44 (and .def_43 .def_36))) (let ((.def_45 (not .def_44))) (let ((.def_46 (not .def_36))) (let ((.def_47 (not .def_43))) (let ((.def_48 (and .def_47 .def_46))) (let ((.def_49 (not .def_48))) (let ((.def_50 (and .def_49 .def_45))) (let ((.def_51 (not G125))) (let ((.def_52 (not G143))) (let ((.def_53 (and .def_52 G146))) (let ((.def_54 (not .def_53))) (let ((.def_55 (not G146))) (let ((.def_56 (and .def_55 G143))) (let ((.def_57 (not .def_56))) (let ((.def_58 (and .def_57 .def_54))) (let ((.def_59 (not .def_58))) (let ((.def_60 (and G128 .def_59))) (let ((.def_61 (not .def_60))) (let ((.def_62 (not G128))) (let ((.def_63 (and .def_58 .def_62))) (let ((.def_64 (not .def_63))) (let ((.def_65 (and .def_64 .def_61))) (let ((.def_66 (and .def_65 .def_51))) (let ((.def_67 (not .def_66))) (let ((.def_68 (not .def_65))) (let ((.def_69 (and .def_68 G125))) (let ((.def_70 (not .def_69))) (let ((.def_71 (and .def_70 .def_67))) (let ((.def_72 (not G953))) (let ((.def_73 (and G224 .def_72))) (let ((.def_74 (and .def_73 .def_71))) (let ((.def_75 (not .def_74))) (let ((.def_76 (not .def_73))) (let ((.def_77 (not .def_71))) (let ((.def_78 (and .def_77 .def_76))) (let ((.def_79 (not .def_78))) (let ((.def_80 (and .def_79 .def_75))) (let ((.def_81 (and .def_80 .def_50))) (let ((.def_82 (not .def_81))) (let ((.def_83 (not .def_50))) (let ((.def_84 (not .def_80))) (let ((.def_85 (and .def_84 .def_83))) (let ((.def_86 (not .def_85))) (let ((.def_87 (and .def_86 .def_82))) (let ((.def_88 (and .def_87 .def_1))) (let ((.def_89 (not .def_88))) (let ((.def_90 (not G237))) (let ((.def_91 (and .def_1 .def_90))) (let ((.def_92 (not .def_91))) (let ((.def_93 (and .def_92 G210))) (let ((.def_94 (and .def_93 .def_89))) (let ((.def_95 (not .def_94))) (let ((.def_96 (not .def_93))) (let ((.def_97 (and .def_96 .def_88))) (let ((.def_98 (not .def_97))) (let ((.def_99 (and .def_98 .def_95))) (let ((.def_100 (and G214 .def_92))) (let ((.def_101 (not .def_100))) (let ((.def_102 (and .def_101 .def_99))) (let ((.def_103 (and G237 G234))) (let ((.def_104 (not .def_103))) (let ((.def_105 (and .def_104 .def_72 G952))) (let ((.def_106 (not .def_105))) (let ((.def_107 (not G900))) (let ((.def_108 (and .def_104 G953 G902 .def_107))) (let ((.def_109 (not .def_108))) (let ((.def_110 (and .def_109 .def_106))) (let ((.def_111 (not .def_110))) (let ((.def_112 (and G128 .def_2))) (let ((.def_113 (not .def_112))) (let ((.def_114 (and G119 .def_62))) (let ((.def_115 (not .def_114))) (let ((.def_116 (and .def_115 .def_113))) (let ((.def_117 (not .def_116))) (let ((.def_118 (and .def_117 G110))) (let ((.def_119 (not .def_118))) (let ((.def_120 (and .def_37 .def_116))) (let ((.def_121 (not .def_120))) (let ((.def_122 (and .def_121 .def_119))) (let ((.def_123 (and .def_51 G140))) (let ((.def_124 (not .def_123))) (let ((.def_125 (not G140))) (let ((.def_126 (and .def_125 G125))) (let ((.def_127 (not .def_126))) (let ((.def_128 (and .def_127 .def_124))) (let ((.def_129 (and .def_128 .def_55))) (let ((.def_130 (not .def_129))) (let ((.def_131 (not .def_128))) (let ((.def_132 (and G146 .def_131))) (let ((.def_133 (not .def_132))) (let ((.def_134 (and .def_133 .def_130))) (let ((.def_135 (not .def_134))) (let ((.def_136 (and .def_135 .def_122))) (let ((.def_137 (not .def_136))) (let ((.def_138 (not .def_122))) (let ((.def_139 (and .def_134 .def_138))) (let ((.def_140 (not .def_139))) (let ((.def_141 (and .def_140 .def_137))) (let ((.def_142 (not .def_141))) (let ((.def_143 (and G234 G221 .def_72))) (let ((.def_144 (and G137 .def_143))) (let ((.def_145 (not .def_144))) (let ((.def_146 (not G137))) (let ((.def_147 (not .def_143))) (let ((.def_148 (and .def_147 .def_146))) (let ((.def_149 (not .def_148))) (let ((.def_150 (and .def_149 .def_145))) (let ((.def_151 (not .def_150))) (let ((.def_152 (and .def_151 .def_142))) (let ((.def_153 (not .def_152))) (let ((.def_154 (and .def_150 .def_141))) (let ((.def_155 (not .def_154))) (let ((.def_156 (and .def_155 .def_153))) (let ((.def_157 (not .def_156))) (let ((.def_158 (and .def_157 .def_1))) (let ((.def_159 (not .def_158))) (let ((.def_160 (and .def_1 G234))) (let ((.def_161 (not .def_160))) (let ((.def_162 (and .def_161 G217))) (let ((.def_163 (and .def_162 .def_159))) (let ((.def_164 (not .def_163))) (let ((.def_165 (not .def_162))) (let ((.def_166 (and .def_165 .def_158))) (let ((.def_167 (not .def_166))) (let ((.def_168 (and .def_167 .def_164))) (let ((.def_169 (and .def_72 .def_90 G210))) (let ((.def_170 (and G101 .def_169))) (let ((.def_171 (not .def_170))) (let ((.def_172 (not .def_169))) (let ((.def_173 (and .def_16 .def_172))) (let ((.def_174 (not .def_173))) (let ((.def_175 (and .def_174 .def_171))) (let ((.def_176 (not .def_175))) (let ((.def_177 (and .def_5 G119))) (let ((.def_178 (not .def_177))) (let ((.def_179 (and .def_4 .def_178))) (let ((.def_180 (and .def_12 .def_179))) (let ((.def_181 (not .def_180))) (let ((.def_182 (not .def_179))) (let ((.def_183 (and .def_182 G113))) (let ((.def_184 (not .def_183))) (let ((.def_185 (and .def_184 .def_181))) (let ((.def_186 (and .def_146 G134))) (let ((.def_187 (not .def_186))) (let ((.def_188 (not G134))) (let ((.def_189 (and .def_188 G137))) (let ((.def_190 (not .def_189))) (let ((.def_191 (and .def_190 .def_187))) (let ((.def_192 (and .def_0 .def_191))) (let ((.def_193 (not .def_192))) (let ((.def_194 (not .def_191))) (let ((.def_195 (and .def_194 G131))) (let ((.def_196 (not .def_195))) (let ((.def_197 (and .def_196 .def_193))) (let ((.def_198 (and .def_65 .def_197))) (let ((.def_199 (not .def_198))) (let ((.def_200 (not .def_197))) (let ((.def_201 (and .def_200 .def_68))) (let ((.def_202 (not .def_201))) (let ((.def_203 (and .def_202 .def_199))) (let ((.def_204 (and .def_203 .def_185))) (let ((.def_205 (not .def_204))) (let ((.def_206 (not .def_185))) (let ((.def_207 (not .def_203))) (let ((.def_208 (and .def_207 .def_206))) (let ((.def_209 (not .def_208))) (let ((.def_210 (and .def_209 .def_205))) (let ((.def_211 (and .def_210 .def_176))) (let ((.def_212 (not .def_211))) (let ((.def_213 (not .def_210))) (let ((.def_214 (and .def_175 .def_213))) (let ((.def_215 (not .def_214))) (let ((.def_216 (and .def_215 .def_212))) (let ((.def_217 (not .def_216))) (let ((.def_218 (and .def_1 .def_217))) (let ((.def_219 (not .def_218))) (let ((.def_220 (and G472 .def_219))) (let ((.def_221 (not .def_220))) (let ((.def_222 (not G472))) (let ((.def_223 (and .def_222 .def_218))) (let ((.def_224 (not .def_223))) (let ((.def_225 (and .def_224 .def_221))) (let ((.def_226 (not .def_225))) (let ((.def_227 (and .def_226 .def_168))) (let ((.def_228 (and .def_55 .def_128))) (let ((.def_229 (not .def_228))) (let ((.def_230 (and .def_133 .def_229))) (let ((.def_231 (and .def_72 G214 .def_90))) (let ((.def_232 (and G143 .def_231))) (let ((.def_233 (not .def_232))) (let ((.def_234 (not .def_231))) (let ((.def_235 (and .def_52 .def_234))) (let ((.def_236 (not .def_235))) (let ((.def_237 (and .def_236 .def_233))) (let ((.def_238 (and .def_237 .def_0))) (let ((.def_239 (not .def_238))) (let ((.def_240 (not .def_237))) (let ((.def_241 (and .def_240 G131))) (let ((.def_242 (not .def_241))) (let ((.def_243 (and .def_242 .def_239))) (let ((.def_244 (not .def_243))) (let ((.def_245 (and .def_244 .def_230))) (let ((.def_246 (not .def_245))) (let ((.def_247 (not .def_230))) (let ((.def_248 (and .def_247 .def_243))) (let ((.def_249 (not .def_248))) (let ((.def_250 (and .def_249 .def_246))) (let ((.def_251 (and G122 .def_12))) (let ((.def_252 (not .def_251))) (let ((.def_253 (and .def_40 G113))) (let ((.def_254 (not .def_253))) (let ((.def_255 (and .def_254 .def_252))) (let ((.def_256 (and .def_255 .def_20))) (let ((.def_257 (not .def_256))) (let ((.def_258 (not .def_255))) (let ((.def_259 (and G104 .def_258))) (let ((.def_260 (not .def_259))) (let ((.def_261 (and .def_260 .def_257))) (let ((.def_262 (not .def_261))) (let ((.def_263 (and .def_262 .def_250))) (let ((.def_264 (not .def_263))) (let ((.def_265 (not .def_250))) (let ((.def_266 (and .def_261 .def_265))) (let ((.def_267 (not .def_266))) (let ((.def_268 (and .def_267 .def_264))) (let ((.def_269 (not .def_268))) (let ((.def_270 (and .def_1 .def_269))) (let ((.def_271 (not G475))) (let ((.def_272 (and .def_271 .def_270))) (let ((.def_273 (not .def_272))) (let ((.def_274 (not .def_270))) (let ((.def_275 (and .def_274 G475))) (let ((.def_276 (not .def_275))) (let ((.def_277 (and .def_276 .def_273))) (let ((.def_278 (not .def_277))) (let ((.def_279 (and .def_72 G234 G217))) (let ((.def_280 (not .def_279))) (let ((.def_281 (and G116 .def_40))) (let ((.def_282 (not .def_281))) (let ((.def_283 (and .def_5 G122))) (let ((.def_284 (not .def_283))) (let ((.def_285 (and .def_284 .def_282))) (let ((.def_286 (not .def_285))) (let ((.def_287 (and .def_286 G107))) (let ((.def_288 (not .def_287))) (let ((.def_289 (and .def_285 .def_17))) (let ((.def_290 (not .def_289))) (let ((.def_291 (and .def_290 .def_288))) (let ((.def_292 (and .def_62 G143))) (let ((.def_293 (not .def_292))) (let ((.def_294 (and .def_52 G128))) (let ((.def_295 (not .def_294))) (let ((.def_296 (and .def_295 .def_293))) (let ((.def_297 (and .def_296 .def_188))) (let ((.def_298 (not .def_297))) (let ((.def_299 (not .def_296))) (let ((.def_300 (and G134 .def_299))) (let ((.def_301 (not .def_300))) (let ((.def_302 (and .def_301 .def_298))) (let ((.def_303 (not .def_302))) (let ((.def_304 (and .def_303 .def_291))) (let ((.def_305 (not .def_304))) (let ((.def_306 (not .def_291))) (let ((.def_307 (and .def_306 .def_302))) (let ((.def_308 (not .def_307))) (let ((.def_309 (and .def_308 .def_305))) (let ((.def_310 (not .def_309))) (let ((.def_311 (and .def_310 .def_280))) (let ((.def_312 (not .def_311))) (let ((.def_313 (and .def_309 .def_279))) (let ((.def_314 (not .def_313))) (let ((.def_315 (and .def_314 .def_312))) (let ((.def_316 (not .def_315))) (let ((.def_317 (and .def_1 .def_316))) (let ((.def_318 (not G478))) (let ((.def_319 (and .def_318 .def_317))) (let ((.def_320 (not .def_319))) (let ((.def_321 (not .def_317))) (let ((.def_322 (and .def_321 G478))) (let ((.def_323 (not .def_322))) (let ((.def_324 (and .def_323 .def_320))) (let ((.def_325 (and .def_324 .def_278))) (let ((.def_326 (and .def_125 G110))) (let ((.def_327 (not .def_326))) (let ((.def_328 (and G140 .def_37))) (let ((.def_329 (not .def_328))) (let ((.def_330 (and .def_329 .def_327))) (let ((.def_331 (and .def_72 G227))) (let ((.def_332 (and .def_331 .def_330))) (let ((.def_333 (not .def_332))) (let ((.def_334 (not .def_330))) (let ((.def_335 (not .def_331))) (let ((.def_336 (and .def_335 .def_334))) (let ((.def_337 (not .def_336))) (let ((.def_338 (and .def_337 .def_333))) (let ((.def_339 (and G104 .def_17))) (let ((.def_340 (not .def_339))) (let ((.def_341 (and .def_20 G107))) (let ((.def_342 (not .def_341))) (let ((.def_343 (and .def_342 .def_340))) (let ((.def_344 (and .def_343 .def_16))) (let ((.def_345 (not .def_344))) (let ((.def_346 (not .def_343))) (let ((.def_347 (and .def_346 G101))) (let ((.def_348 (not .def_347))) (let ((.def_349 (and .def_348 .def_345))) (let ((.def_350 (not .def_349))) (let ((.def_351 (and G146 .def_52))) (let ((.def_352 (not .def_351))) (let ((.def_353 (and .def_352 .def_57))) (let ((.def_354 (and .def_62 .def_353))) (let ((.def_355 (not .def_354))) (let ((.def_356 (not .def_353))) (let ((.def_357 (and G128 .def_356))) (let ((.def_358 (not .def_357))) (let ((.def_359 (and .def_358 .def_355))) (let ((.def_360 (not .def_359))) (let ((.def_361 (and .def_360 .def_350))) (let ((.def_362 (not .def_361))) (let ((.def_363 (and .def_349 .def_359))) (let ((.def_364 (not .def_363))) (let ((.def_365 (and .def_364 .def_362))) (let ((.def_366 (not .def_365))) (let ((.def_367 (and .def_200 .def_366))) (let ((.def_368 (not .def_367))) (let ((.def_369 (and .def_197 .def_365))) (let ((.def_370 (not .def_369))) (let ((.def_371 (and .def_370 .def_368))) (let ((.def_372 (and .def_371 .def_338))) (let ((.def_373 (not .def_372))) (let ((.def_374 (not .def_338))) (let ((.def_375 (not .def_371))) (let ((.def_376 (and .def_375 .def_374))) (let ((.def_377 (not .def_376))) (let ((.def_378 (and .def_377 .def_373))) (let ((.def_379 (not .def_378))) (let ((.def_380 (and .def_1 .def_379))) (let ((.def_381 (not .def_380))) (let ((.def_382 (and .def_381 G469))) (let ((.def_383 (not .def_382))) (let ((.def_384 (not G469))) (let ((.def_385 (and .def_384 .def_380))) (let ((.def_386 (not .def_385))) (let ((.def_387 (and .def_386 .def_383))) (let ((.def_388 (not .def_387))) (let ((.def_389 (and G221 .def_161))) (let ((.def_390 (not .def_389))) (let ((.def_391 (and .def_390 .def_388))) (let ((.def_392 (and .def_391 .def_325 .def_227 .def_111 .def_102))) (let ((.def_393 (and .def_392 .def_0))) (let ((.def_394 (not .def_393))) (let ((.def_395 (not .def_392))) (let ((.def_396 (and .def_395 G131))) (let ((.def_397 (not .def_396))) (let ((.def_398 (and .def_397 .def_394))) (let ((.def_399 (not .def_99))) (let ((.def_400 (and .def_399 .def_101))) (let ((.def_401 (not .def_324))) (let ((.def_402 (and .def_277 .def_401))) (let ((.def_403 (not .def_168))) (let ((.def_404 (and .def_226 .def_403))) (let ((.def_405 (and .def_404 .def_111 .def_402 .def_400 .def_391))) (let ((.def_406 (and .def_62 .def_405))) (let ((.def_407 (not .def_406))) (let ((.def_408 (not .def_405))) (let ((.def_409 (and .def_408 G128))) (let ((.def_410 (not .def_409))) (let ((.def_411 (and .def_410 .def_407))) (let ((.def_412 (not G898))) (let ((.def_413 (and .def_412 G953 .def_104 G902))) (let ((.def_414 (not .def_413))) (let ((.def_415 (and .def_106 .def_414))) (let ((.def_416 (not .def_415))) (let ((.def_417 (and .def_225 .def_168))) (let ((.def_418 (and .def_417 .def_402 .def_416 .def_400 .def_391))) (let ((.def_419 (and .def_418 .def_17))) (let ((.def_420 (not .def_419))) (let ((.def_421 (not .def_418))) (let ((.def_422 (and G107 .def_421))) (let ((.def_423 (not .def_422))) (let ((.def_424 (and .def_423 .def_420))) (let ((.def_425 (and .def_324 .def_277))) (let ((.def_426 (and .def_391 .def_404 .def_111 .def_102 .def_425))) (let ((.def_427 (and .def_426 .def_146))) (let ((.def_428 (not .def_427))) (let ((.def_429 (not .def_426))) (let ((.def_430 (and G137 .def_429))) (let ((.def_431 (not .def_430))) (let ((.def_432 (and .def_431 .def_428))) (let ((.def_433 (and .def_225 .def_403))) (let ((.def_434 (and .def_425 .def_433 .def_416 .def_400 .def_391))) (let ((.def_435 (not .def_434))) (let ((.def_436 (and .def_435 G110))) (let ((.def_437 (not .def_436))) (let ((.def_438 (and .def_434 .def_37))) (let ((.def_439 (not .def_438))) (let ((.def_440 (and .def_439 .def_437))) (let ((.def_441 (not .def_440))) (let ((.def_442 (not G952))) (let ((.def_443 (and .def_442 G953))) (let ((.def_444 (not .def_443))) (let ((.def_445 (and G125 .def_68))) (let ((.def_446 (not .def_445))) (let ((.def_447 (and .def_446 .def_67))) (let ((.def_448 (and .def_73 .def_447))) (let ((.def_449 (not .def_448))) (let ((.def_450 (not .def_447))) (let ((.def_451 (and .def_450 .def_76))) (let ((.def_452 (not .def_451))) (let ((.def_453 (and .def_452 .def_449))) (let ((.def_454 (and .def_83 .def_453))) (let ((.def_455 (not .def_454))) (let ((.def_456 (not .def_453))) (let ((.def_457 (and .def_456 .def_50))) (let ((.def_458 (not .def_457))) (let ((.def_459 (and .def_458 .def_455))) (let ((.def_460 (and .def_390 .def_387))) (let ((.def_461 (and .def_325 .def_227 .def_416 .def_400 .def_460))) (let ((.def_462 (not .def_461))) (let ((.def_463 (and .def_404 .def_416 .def_400 .def_460 .def_425))) (let ((.def_464 (not .def_463))) (let ((.def_465 (and .def_425 .def_227 .def_416 .def_400 .def_391))) (let ((.def_466 (not .def_465))) (let ((.def_467 (and .def_417 .def_325 .def_416 .def_400 .def_391))) (let ((.def_468 (not .def_467))) (let ((.def_469 (and .def_401 .def_278))) (let ((.def_470 (and .def_417 .def_469 .def_416 .def_400 .def_460))) (let ((.def_471 (not .def_470))) (let ((.def_472 (and .def_227 .def_402 .def_416 .def_400 .def_460))) (let ((.def_473 (not .def_472))) (let ((.def_474 (and .def_473 .def_471 .def_468 .def_435 .def_421 .def_466 .def_464 .def_462))) (let ((.def_475 (and .def_391 .def_227 .def_111 .def_402 .def_102))) (let ((.def_476 (not .def_475))) (let ((.def_477 (and .def_391 .def_404 .def_325 .def_111 .def_400))) (let ((.def_478 (not .def_477))) (let ((.def_479 (and .def_325 .def_111 .def_433 .def_400 .def_460))) (let ((.def_480 (not .def_479))) (let ((.def_481 (and .def_391 .def_325 .def_111 .def_433 .def_102))) (let ((.def_482 (not .def_481))) (let ((.def_483 (and .def_391 .def_469 .def_227 .def_111 .def_400))) (let ((.def_484 (not .def_483))) (let ((.def_485 (and .def_484 .def_482 .def_480 .def_395 .def_478 .def_408 .def_429 .def_476))) (let ((.def_486 (and .def_485 .def_474))) (let ((.def_487 (not .def_486))) (let ((.def_488 (and .def_487 G902 .def_93))) (let ((.def_489 (and .def_488 .def_459))) (let ((.def_490 (not .def_489))) (let ((.def_491 (not .def_488))) (let ((.def_492 (not .def_459))) (let ((.def_493 (and .def_492 .def_491))) (let ((.def_494 (not .def_493))) (let ((.def_495 (and .def_494 .def_490))) (let ((.def_496 (not .def_495))) (let ((.def_497 (and .def_496 .def_444))) (let ((.def_498 (and .def_478 G146))) (let ((.def_499 (not .def_498))) (let ((.def_500 (and .def_477 .def_55))) (let ((.def_501 (not .def_500))) (let ((.def_502 (and .def_501 .def_499))) (let ((.def_503 (and .def_12 .def_461))) (let ((.def_504 (not .def_503))) (let ((.def_505 (and G113 .def_462))) (let ((.def_506 (not .def_505))) (let ((.def_507 (and .def_506 .def_504))) (let ((.def_508 (and .def_472 .def_5))) (let ((.def_509 (not .def_508))) (let ((.def_510 (and G116 .def_473))) (let ((.def_511 (not .def_510))) (let ((.def_512 (and .def_511 .def_509))) (let ((.def_513 (and .def_466 G101))) (let ((.def_514 (not .def_513))) (let ((.def_515 (and .def_16 .def_465))) (let ((.def_516 (not .def_515))) (let ((.def_517 (and .def_516 .def_514))) (let ((.def_518 (and .def_40 .def_470))) (let ((.def_519 (not .def_518))) (let ((.def_520 (and .def_471 G122))) (let ((.def_521 (not .def_520))) (let ((.def_522 (and .def_521 .def_519))) (let ((.def_523 (not .def_522))) (let ((.def_524 (and .def_95 .def_98))) (let ((.def_525 (and .def_383 .def_386))) (let ((.def_526 (and G475 .def_274))) (let ((.def_527 (not .def_526))) (let ((.def_528 (and .def_273 .def_527))) (let ((.def_529 (and .def_317 .def_318))) (let ((.def_530 (not .def_529))) (let ((.def_531 (and .def_530 .def_323))) (let ((.def_532 (and .def_164 .def_167))) (let ((.def_533 (and .def_218 .def_222))) (let ((.def_534 (not .def_533))) (let ((.def_535 (and .def_219 G472))) (let ((.def_536 (not .def_535))) (let ((.def_537 (and .def_536 .def_534))) (let ((.def_538 (and .def_537 .def_101 .def_532 .def_531 .def_528 .def_390 .def_525 .def_524))) (let ((.def_539 (not .def_538))) (let ((.def_540 (and .def_72 .def_442 .def_539))) (let ((.def_541 (and .def_105 .def_391 .def_417 .def_102 .def_425))) (let ((.def_542 (not .def_541))) (let ((.def_543 (and .def_105 .def_227 .def_102 .def_425 .def_460))) (let ((.def_544 (not .def_543))) (let ((.def_545 (and .def_105 .def_417 .def_325 .def_102 .def_460))) (let ((.def_546 (not .def_545))) (let ((.def_547 (and .def_105 .def_417 .def_402 .def_102 .def_460))) (let ((.def_548 (not .def_547))) (let ((.def_549 (and .def_105 .def_417 .def_400 .def_460 .def_425))) (let ((.def_550 (not .def_549))) (let ((.def_551 (and .def_100 .def_99))) (let ((.def_552 (and .def_105 .def_417 .def_460 .def_425 .def_551))) (let ((.def_553 (not .def_552))) (let ((.def_554 (and .def_387 .def_389))) (let ((.def_555 (and .def_105 .def_417 .def_554 .def_102 .def_425))) (let ((.def_556 (not .def_555))) (let ((.def_557 (and .def_105 .def_433 .def_102 .def_425 .def_460))) (let ((.def_558 (not .def_557))) (let ((.def_559 (and .def_558 .def_556 .def_553 .def_550 .def_548 .def_546 .def_544 .def_542))) (let ((.def_560 (and .def_485 .def_559 .def_474))) (let ((.def_561 (and .def_72 .def_560 .def_539 G952))) (let ((.def_562 (or .def_561 .def_540))) (let ((.def_563 (and .def_483 .def_52))) (let ((.def_564 (not .def_563))) (let ((.def_565 (and G143 .def_484))) (let ((.def_566 (not .def_565))) (let ((.def_567 (and .def_566 .def_564))) (let ((.def_568 (and G900 G227))) (let ((.def_569 (not .def_568))) (let ((.def_570 (and G953 .def_569))) (let ((.def_571 (and G125 .def_125))) (let ((.def_572 (not .def_571))) (let ((.def_573 (and .def_124 .def_572))) (let ((.def_574 (and G137 .def_188))) (let ((.def_575 (not .def_574))) (let ((.def_576 (and .def_575 .def_187))) (let ((.def_577 (not .def_576))) (let ((.def_578 (and .def_577 G131))) (let ((.def_579 (not .def_578))) (let ((.def_580 (and .def_0 .def_576))) (let ((.def_581 (not .def_580))) (let ((.def_582 (and .def_581 .def_579))) (let ((.def_583 (and .def_582 .def_359))) (let ((.def_584 (not .def_583))) (let ((.def_585 (not .def_582))) (let ((.def_586 (and .def_360 .def_585))) (let ((.def_587 (not .def_586))) (let ((.def_588 (and .def_587 .def_584))) (let ((.def_589 (and .def_588 .def_573))) (let ((.def_590 (not .def_589))) (let ((.def_591 (not .def_573))) (let ((.def_592 (not .def_588))) (let ((.def_593 (and .def_592 .def_591))) (let ((.def_594 (not .def_593))) (let ((.def_595 (and .def_594 .def_590))) (let ((.def_596 (and G953 .def_107))) (let ((.def_597 (not .def_596))) (let ((.def_598 (and .def_597 .def_595))) (let ((.def_599 (not .def_598))) (let ((.def_600 (not .def_485))) (let ((.def_601 (and .def_600 .def_72))) (let ((.def_602 (and .def_601 .def_599))) (let ((.def_603 (not .def_602))) (let ((.def_604 (not .def_601))) (let ((.def_605 (and .def_604 .def_598))) (let ((.def_606 (not .def_605))) (let ((.def_607 (and .def_606 .def_603))) (let ((.def_608 (and .def_607 .def_570))) (let ((.def_609 (not .def_608))) (let ((.def_610 (not .def_570))) (let ((.def_611 (not .def_607))) (let ((.def_612 (and .def_611 .def_610))) (let ((.def_613 (not .def_612))) (let ((.def_614 (and .def_613 .def_609))) (let ((.def_615 (and .def_487 G902 G475))) (let ((.def_616 (and .def_268 .def_615))) (let ((.def_617 (not .def_616))) (let ((.def_618 (not .def_615))) (let ((.def_619 (and .def_618 .def_269))) (let ((.def_620 (not .def_619))) (let ((.def_621 (and .def_620 .def_617))) (let ((.def_622 (not .def_621))) (let ((.def_623 (and .def_444 .def_622))) (let ((.def_624 (not .def_623))) (let ((.def_625 (and G104 .def_468))) (let ((.def_626 (not .def_625))) (let ((.def_627 (and .def_20 .def_467))) (let ((.def_628 (not .def_627))) (let ((.def_629 (and .def_628 .def_626))) (let ((.def_630 (and .def_487 G902 .def_162))) (let ((.def_631 (and .def_630 .def_156))) (let ((.def_632 (not .def_631))) (let ((.def_633 (not .def_630))) (let ((.def_634 (and .def_633 .def_157))) (let ((.def_635 (not .def_634))) (let ((.def_636 (and .def_635 .def_632))) (let ((.def_637 (not .def_636))) (let ((.def_638 (and .def_637 .def_444))) (let ((.def_639 (not .def_638))) (let ((.def_640 (and .def_37 G140))) (let ((.def_641 (not .def_640))) (let ((.def_642 (and .def_641 .def_327))) (let ((.def_643 (and .def_642 .def_331))) (let ((.def_644 (not .def_643))) (let ((.def_645 (not .def_642))) (let ((.def_646 (and .def_645 .def_335))) (let ((.def_647 (not .def_646))) (let ((.def_648 (and .def_647 .def_644))) (let ((.def_649 (and .def_359 .def_349))) (let ((.def_650 (not .def_649))) (let ((.def_651 (and .def_350 .def_360))) (let ((.def_652 (not .def_651))) (let ((.def_653 (and .def_652 .def_650))) (let ((.def_654 (not .def_653))) (let ((.def_655 (and .def_654 .def_200))) (let ((.def_656 (not .def_655))) (let ((.def_657 (and .def_653 .def_197))) (let ((.def_658 (not .def_657))) (let ((.def_659 (and .def_658 .def_656))) (let ((.def_660 (and .def_659 .def_648))) (let ((.def_661 (not .def_660))) (let ((.def_662 (not .def_648))) (let ((.def_663 (not .def_659))) (let ((.def_664 (and .def_663 .def_662))) (let ((.def_665 (not .def_664))) (let ((.def_666 (and .def_665 .def_661))) (let ((.def_667 (and .def_487 G902 G469))) (let ((.def_668 (and .def_667 .def_666))) (let ((.def_669 (not .def_668))) (let ((.def_670 (not .def_666))) (let ((.def_671 (not .def_667))) (let ((.def_672 (and .def_671 .def_670))) (let ((.def_673 (not .def_672))) (let ((.def_674 (and .def_673 .def_669))) (let ((.def_675 (not .def_674))) (let ((.def_676 (and .def_675 .def_444))) (let ((.def_677 (not .def_676))) (let ((.def_678 (and .def_487 G902 G478))) (let ((.def_679 (and .def_315 .def_678))) (let ((.def_680 (not .def_679))) (let ((.def_681 (not .def_678))) (let ((.def_682 (and .def_316 .def_681))) (let ((.def_683 (not .def_682))) (let ((.def_684 (and .def_683 .def_680))) (let ((.def_685 (not .def_684))) (let ((.def_686 (and .def_444 .def_685))) (let ((.def_687 (not .def_686))) (let ((.def_688 (and .def_188 .def_475))) (let ((.def_689 (not .def_688))) (let ((.def_690 (and G134 .def_476))) (let ((.def_691 (not .def_690))) (let ((.def_692 (and .def_691 .def_689))) (let ((.def_693 (and G125 .def_480))) (let ((.def_694 (not .def_693))) (let ((.def_695 (and .def_51 .def_479))) (let ((.def_696 (not .def_695))) (let ((.def_697 (and .def_696 .def_694))) (let ((.def_698 (and G224 G898))) (let ((.def_699 (not .def_698))) (let ((.def_700 (and .def_699 G953))) (let ((.def_701 (and .def_32 .def_33))) (let ((.def_702 (not .def_701))) (let ((.def_703 (and .def_702 .def_31))) (let ((.def_704 (and .def_43 .def_703))) (let ((.def_705 (not .def_704))) (let ((.def_706 (not .def_703))) (let ((.def_707 (and .def_706 .def_47))) (let ((.def_708 (not .def_707))) (let ((.def_709 (and .def_708 .def_705))) (let ((.def_710 (and .def_412 G953))) (let ((.def_711 (not .def_710))) (let ((.def_712 (and .def_711 .def_709))) (let ((.def_713 (not .def_712))) (let ((.def_714 (not .def_474))) (let ((.def_715 (and .def_72 .def_714))) (let ((.def_716 (and .def_715 .def_713))) (let ((.def_717 (not .def_716))) (let ((.def_718 (not .def_715))) (let ((.def_719 (and .def_718 .def_712))) (let ((.def_720 (not .def_719))) (let ((.def_721 (and .def_720 .def_717))) (let ((.def_722 (and .def_721 .def_700))) (let ((.def_723 (not .def_722))) (let ((.def_724 (not .def_700))) (let ((.def_725 (not .def_721))) (let ((.def_726 (and .def_725 .def_724))) (let ((.def_727 (not .def_726))) (let ((.def_728 (and .def_727 .def_723))) (let ((.def_729 (not .def_728))) (let ((.def_730 (and .def_125 .def_481))) (let ((.def_731 (not .def_730))) (let ((.def_732 (and G140 .def_482))) (let ((.def_733 (not .def_732))) (let ((.def_734 (and .def_733 .def_731))) (let ((.def_735 (not .def_734))) (let ((.def_736 (and .def_172 .def_16))) (let ((.def_737 (not .def_736))) (let ((.def_738 (and .def_169 G101))) (let ((.def_739 (not .def_738))) (let ((.def_740 (and .def_739 .def_737))) (let ((.def_741 (and .def_487 G472 G902))) (let ((.def_742 (and .def_68 .def_200))) (let ((.def_743 (not .def_742))) (let ((.def_744 (and .def_743 .def_199))) (let ((.def_745 (and .def_744 .def_185))) (let ((.def_746 (not .def_745))) (let ((.def_747 (not .def_744))) (let ((.def_748 (and .def_206 .def_747))) (let ((.def_749 (not .def_748))) (let ((.def_750 (and .def_749 .def_746))) (let ((.def_751 (and .def_750 .def_741))) (let ((.def_752 (not .def_751))) (let ((.def_753 (not .def_741))) (let ((.def_754 (not .def_750))) (let ((.def_755 (and .def_754 .def_753))) (let ((.def_756 (not .def_755))) (let ((.def_757 (and .def_756 .def_752))) (let ((.def_758 (not .def_757))) (let ((.def_759 (and .def_758 .def_740))) (let ((.def_760 (not .def_759))) (let ((.def_761 (not .def_740))) (let ((.def_762 (and .def_757 .def_761))) (let ((.def_763 (not .def_762))) (let ((.def_764 (and .def_763 .def_760))) (let ((.def_765 (not .def_764))) (let ((.def_766 (and .def_765 .def_444))) (let ((.def_767 (not .def_766))) (let ((.def_768 (and .def_2 .def_463))) (let ((.def_769 (not .def_768))) (let ((.def_770 (and .def_464 G119))) (let ((.def_771 (not .def_770))) (let ((.def_772 (and .def_771 .def_769))) (let ((.def_773 (and .def_772 .def_767 .def_735 .def_729 .def_697 .def_692 .def_687 .def_677 .def_639 .def_629 .def_624 .def_614 .def_567 .def_562 .def_523 .def_517 .def_512 .def_507 .def_502 .def_497 .def_441 .def_432 .def_424 .def_411 .def_398))) .def_773)))))))))))))))))))))))))))))))))))))))))))))))))))))))))))))))))))))))))))))))))))))))))))))))))))))))))))))))))))))))))))))))))))))))))))))))))))))))))))))))))))))))))))))))))))))))))))))))))))))))))))))))))))))))))))))))))))))))))))))))))))))))))))))))))))))))))))))))))))))))))))))))))))))))))))))))))))))))))))))))))))))))))))))))))))))))))))))))))))))))))))))))))))))))))))))))))))))))))))))))))))))))))))))))))))))))))))))))))))))))))))))))))))))))))))))))))))))))))))))))))))))))))))))))))))))))))))))))))))))))))))))))))))))))))))))))))))))))))))))))))))))))))))))))))))))))))))))))))))))))))))))))))))))))))))))))))))))))))))))))))))))))))))))))))))))))))))))))))))))))))))))))))))))))))))))))))))))))))))))))))))))))))))))))))))))))))))))))))))))))))))))))))))))))
(check-sat)
